
Gurobi 12.0.2 (win64) logging started Mon Nov 10 20:24:56 2025

Set parameter LogFile to value "C:\Ioana\_uni\honours\slp\algorithm\Main_files\results\respiration_paracetamol\Task_002_Sample005_irr_gurobi.log"
Gurobi Optimizer version 12.0.2 build v12.0.2rc0 (win64 - Windows 11.0 (26100.2))

CPU model: Intel(R) Core(TM) Ultra 5 125H, instruction set [SSE2|AVX|AVX2]
Thread count: 14 physical cores, 18 logical processors, using up to 18 threads

Non-default parameters:
TimeLimit  2200

Optimize a model with 47236 rows, 34507 columns and 146717 nonzeros
Model fingerprint: 0x6ede9b8a
Variable types: 17258 continuous, 17249 integer (17249 binary)
Coefficient statistics:
  Matrix range     [1e-04, 8e+04]
  Objective range  [1e-04, 1e+01]
  Bounds range     [1e+00, 1e+03]
  RHS range        [1e+00, 1e+00]
Presolve removed 30793 rows and 21554 columns
Presolve time: 0.34s
Presolved: 16443 rows, 12953 columns, 54664 nonzeros
Variable types: 6410 continuous, 6543 integer (6543 binary)

Root relaxation: objective 1.568461e-04, 536 iterations, 0.03 seconds (0.04 work units)

    Nodes    |    Current Node    |     Objective Bounds      |     Work
 Expl Unexpl |  Obj  Depth IntInf | Incumbent    BestBd   Gap | It/Node Time

     0     0    0.00016    0   10          -    0.00016      -     -    0s
H    0     0                       0.1102090    0.00016   100%     -    0s
     0     0    0.02209    0   18    0.11021    0.02209  80.0%     -    0s
     0     0    0.02209    0   10    0.11021    0.02209  80.0%     -    0s
     0     0    0.08413    0    8    0.11021    0.08413  23.7%     -    1s
     0     0    0.08567    0    7    0.11021    0.08567  22.3%     -    1s
     0     0    0.10682    0    7    0.11021    0.10682  3.08%     -    1s
     0     0     cutoff    0         0.11021    0.11021  0.00%     -    1s

Cutting planes:
  Cover: 2
  Implied bound: 1
  Clique: 1
  MIR: 7
  Flow cover: 10
  Flow path: 5

Explored 1 nodes (2844 simplex iterations) in 1.14 seconds (1.17 work units)
Thread count was 18 (of 18 available processors)

Solution count 1: 0.110209 

Optimal solution found (tolerance 1.00e-04)
Best objective 1.102090485580e-01, best bound 1.102090485580e-01, gap 0.0000%
